50	519684

6787 7787
7885 8885
625 1625
9000 10000
2631 3631
990 1990
1778 2778
3194 4194
6271 7271
9483 10483
8161 9161
9952 10952
874 1874
5689 6689
6234 7234
4940 5940
6560 7560
1352 2352
438 1438
9526 10526
8971 9971
3075 4075
4005 5005
8515 9515
275 1275
4279 5279
7232 8232
397 1397
7133 8133
463 1463
8492 9492
532 1532
4219 5219
4320 5320
3734 4734
8449 9449
8663 9663
8641 9641
1958 2958
3327 4327
8962 9962
5894 6894
9794 10794
9728 10728
4308 5308
2371 3371
3839 4839
4175 5175
4799 5799
6922 7922
